c smth
s vc 200 141
195
192
191
190
189
188
187
186
183
182
181
179
177
176
175
174
173
172
170
169
167
166
164
163
162
161
160
159
158
157
155
153
152
150
149
147
145
143
142
141
140
139
138
135
133
131
130
129
128
127
126
122
120
119
118
117
116
115
112
110
108
107
105
104
102
101
100
99
98
95
94
93
92
90
87
86
85
84
83
82
81
80
79
77
76
74
72
71
70
69
67
66
65
64
62
61
59
58
57
56
55
54
52
51
49
47
45
43
42
41
40
39
38
37
36
35
33
31
29
28
27
26
23
22
21
20
19
18
17
16
15
13
12
11
9
7
6
4
3
2
1